language Essence 1.3

letting blksize_delta be
        function(1 --> 3, 2 --> 5, 3 --> 2, 4 --> 4, 5 --> 3, 6 --> 2, 7 --> 4, 8 --> 4, 9 --> 3, 10 --> 5, 11 --> 5,
                 12 --> 4, 13 --> 5, 14 --> 5, 15 --> 2, 16 --> 4, 17 --> 2)
letting maxcars be
        function(1 --> 3, 2 --> 3, 3 --> 3, 4 --> 3, 5 --> 5, 6 --> 6, 7 --> 3, 8 --> 3, 9 --> 5, 10 --> 6, 11 --> 4,
                 12 --> 4, 13 --> 3, 14 --> 4, 15 --> 4, 16 --> 6, 17 --> 4)
letting n_cars be 80
letting n_classes be 17
letting n_options be 17
letting quantity be
        function(1 --> 5, 2 --> 6, 3 --> 4, 4 --> 12, 5 --> 5, 6 --> 4, 7 --> 4, 8 --> 4, 9 --> 4, 10 --> 4, 11 --> 4,
                 12 --> 4, 13 --> 4, 14 --> 4, 15 --> 4, 16 --> 4, 17 --> 4)
letting usage be
        relation((1, 1), (1, 5), (1, 6), (1, 7), (1, 13), (1, 16), (2, 3), (2, 7), (2, 9), (2, 13), (2, 14), (2, 16),
                 (3, 6), (3, 7), (3, 9), (3, 12), (3, 13), (3, 15), (4, 2), (4, 4), (4, 6), (4, 7), (4, 8), (4, 11),
                 (4, 12), (4, 13), (4, 14), (4, 15), (4, 16), (5, 1), (5, 2), (5, 3), (5, 5), (5, 11), (5, 15), (5, 16),
                 (6, 1), (6, 2), (6, 4), (6, 6), (6, 7), (6, 13), (6, 14), (7, 4), (7, 5), (7, 7), (7, 11), (7, 14),
                 (8, 2), (8, 4), (8, 5), (8, 8), (8, 9), (8, 11), (8, 13), (8, 15), (8, 16), (9, 6), (9, 7), (9, 8),
                 (9, 9), (9, 13), (9, 14), (9, 16), (10, 2), (10, 3), (10, 4), (10, 10), (10, 14), (10, 15), (11, 3),
                 (11, 5), (11, 7), (11, 8), (11, 9), (11, 10), (11, 13), (11, 14), (12, 2), (12, 3), (12, 4), (12, 6),
                 (12, 7), (12, 8), (12, 10), (12, 15), (12, 16), (13, 4), (13, 5), (13, 6), (13, 7), (13, 11), (13, 12),
                 (13, 13), (13, 14), (13, 15), (14, 3), (14, 4), (14, 6), (14, 7), (14, 10), (14, 14), (15, 4), (15, 5),
                 (15, 10), (15, 11), (15, 12), (15, 15), (15, 16), (16, 5), (16, 6), (16, 9), (16, 14), (16, 15),
                 (16, 16), (17, 17))
$ Visualisation for usage
$  1  1
$  1  5
$  1  6
$  1  7
$  1 13
$  1 16
$  2  3
$  2  7
$  2  9
$  2 13
$  2 14
$  2 16
$  3  6
$  3  7
$  3  9
$  3 12
$  3 13
$  3 15
$  4  2
$  4  4
$  4  6
$  4  7
$  4  8
$  4 11
$  4 12
$  4 13
$  4 14
$  4 15
$  4 16
$  5  1
$  5  2
$  5  3
$  5  5
$  5 11
$  5 15
$  5 16
$  6  1
$  6  2
$  6  4
$  6  6
$  6  7
$  6 13
$  6 14
$  7  4
$  7  5
$  7  7
$  7 11
$  7 14
$  8  2
$  8  4
$  8  5
$  8  8
$  8  9
$  8 11
$  8 13
$  8 15
$  8 16
$  9  6
$  9  7
$  9  8
$  9  9
$  9 13
$  9 14
$  9 16
$ 10  2
$ 10  3
$ 10  4
$ 10 10
$ 10 14
$ 10 15
$ 11  3
$ 11  5
$ 11  7
$ 11  8
$ 11  9
$ 11 10
$ 11 13
$ 11 14
$ 12  2
$ 12  3
$ 12  4
$ 12  6
$ 12  7
$ 12  8
$ 12 10
$ 12 15
$ 12 16
$ 13  4
$ 13  5
$ 13  6
$ 13  7
$ 13 11
$ 13 12
$ 13 13
$ 13 14
$ 13 15
$ 14  3
$ 14  4
$ 14  6
$ 14  7
$ 14 10
$ 14 14
$ 15  4
$ 15  5
$ 15 10
$ 15 11
$ 15 12
$ 15 15
$ 15 16
$ 16  5
$ 16  6
$ 16  9
$ 16 14
$ 16 15
$ 16 16
$ 17 17

